N4
1.0
        3.2946169376         0.0000000000         0.0000000000
       -1.0982057158         3.1061946126         0.0000000000
       -1.0982057158        -1.5530974546         2.6900433580
    N
    4
Direct
     0.328702003         0.328702003         0.328702003
     0.500000000         0.000000000         0.171297997
     0.000000000         0.171297997         0.500000000
     0.171297997         0.500000000         0.000000000
